(declare-const %138 (_ BitVec 1))
(declare-const %94 (_ BitVec 16))
(declare-const %95 (_ BitVec 64))
(declare-const %137 (_ BitVec 3))
(declare-const %96 (_ BitVec 64))
(declare-const %139 (_ BitVec 64))
(declare-const %97 (_ BitVec 64))
(declare-const %98 (_ BitVec 64))
(declare-const %99 (_ BitVec 64))
(declare-const %130 (_ BitVec 64))
(declare-const %132 (_ BitVec 56))
(declare-const %131 (_ BitVec 64))
(declare-const tmp_dword1!9 (_ BitVec 64))
(declare-const %134 (_ BitVec 64))
(declare-const tmp_dword1!8 (_ BitVec 64))
(declare-const %133 (_ BitVec 64))
(declare-const %136 (_ BitVec 64))
(declare-const tmp_dword1!7 (_ BitVec 64))
(declare-const %135 (_ BitVec 64))
(declare-const tmp_dword1!6 (_ BitVec 64))
(declare-const tmp_dword1!5 (_ BitVec 64))
(declare-const %149 (_ BitVec 64))
(declare-const tmp_dword1!4 (_ BitVec 64))
(declare-const %148 (_ BitVec 64))
(declare-const tmp_dword1!3 (_ BitVec 64))
(declare-const prev_pc!6 (_ BitVec 64))
(declare-const tmp_dword1!2 (_ BitVec 64))
(declare-const tmp_dword1!1 (_ BitVec 64))
(declare-const prev_pc!4 (_ BitVec 64))
(declare-const prev_pc!5 (_ BitVec 64))
(declare-const prev_pc!2 (_ BitVec 64))
(declare-const prev_pc!3 (_ BitVec 64))
(declare-const %141 (_ BitVec 64))
(declare-const tmp_dword1!20 (_ BitVec 64))
(declare-const tmp_dword1!21 (_ BitVec 64))
(declare-const %140 (_ BitVec 16))
(declare-const %143 (_ BitVec 64))
(declare-const %142 (_ BitVec 64))
(declare-const %145 (_ BitVec 64))
(declare-const %144 (_ BitVec 64))
(declare-const %147 (_ BitVec 64))
(declare-const %146 (_ BitVec 48))
(declare-const %159 (_ BitVec 64))
(declare-const %150 (_ BitVec 64))
(declare-const %152 (_ BitVec 1))
(declare-const tmp_dword2!21 (_ BitVec 64))
(declare-const %151 (_ BitVec 3))
(declare-const %154 (_ BitVec 24))
(declare-const %153 (_ BitVec 64))
(declare-const %156 (_ BitVec 64))
(declare-const %155 (_ BitVec 64))
(declare-const tmp_dword2!20 (_ BitVec 64))
(declare-const %158 (_ BitVec 64))
(declare-const %157 (_ BitVec 64))
(declare-const tmp_dword2!19 (_ BitVec 64))
(declare-const tmp_dword2!18 (_ BitVec 64))
(declare-const tmp_dword2!15 (_ BitVec 64))
(declare-const tmp_dword2!14 (_ BitVec 64))
(declare-const %161 (_ BitVec 64))
(declare-const tmp_dword2!17 (_ BitVec 64))
(declare-const %160 (_ BitVec 40))
(declare-const tmp_dword2!16 (_ BitVec 64))
(declare-const tmp_dword2!11 (_ BitVec 64))
(declare-const %163 (_ BitVec 64))
(declare-const tmp_dword2!10 (_ BitVec 64))
(declare-const %162 (_ BitVec 64))
(declare-const tmp_dword2!13 (_ BitVec 64))
(declare-const %165 (_ BitVec 3))
(declare-const tmp_dword2!12 (_ BitVec 64))
(declare-const %164 (_ BitVec 64))
(declare-const %167 (_ BitVec 64))
(declare-const %166 (_ BitVec 1))
(declare-const %169 (_ BitVec 64))
(declare-const %168 (_ BitVec 32))
(declare-const XREG!3 (Array (_ BitVec 5) (_ BitVec 64)))
(declare-const XREG!4 (Array (_ BitVec 5) (_ BitVec 64)))
(declare-const XREG!1 (Array (_ BitVec 5) (_ BitVec 64)))
(declare-const XREG!2 (Array (_ BitVec 5) (_ BitVec 64)))
(declare-const tmp_address!2 (_ BitVec 64))
(declare-const tmp_address!3 (_ BitVec 64))
(declare-const %170 (_ BitVec 64))
(declare-const %172 (_ BitVec 64))
(declare-const %171 (_ BitVec 64))
(declare-const %174 (_ BitVec 32))
(declare-const %173 (_ BitVec 64))
(declare-const %176 (_ BitVec 64))
(declare-const %175 (_ BitVec 64))
(declare-const XREG!7 (Array (_ BitVec 5) (_ BitVec 64)))
(declare-const %178 (_ BitVec 64))
(declare-const XREG!8 (Array (_ BitVec 5) (_ BitVec 64)))
(declare-const %177 (_ BitVec 64))
(declare-const XREG!5 (Array (_ BitVec 5) (_ BitVec 64)))
(declare-const XREG!6 (Array (_ BitVec 5) (_ BitVec 64)))
(declare-const %179 (_ BitVec 3))
(declare-const %1 (_ BitVec 64))
(declare-const %2 (_ BitVec 64))
(declare-const %3 (_ BitVec 64))
(declare-const %4 (_ BitVec 64))
(declare-const %5 (_ BitVec 64))
(declare-const %6 (_ BitVec 64))
(declare-const %7 (_ BitVec 64))
(declare-const %8 (_ BitVec 64))
(declare-const %9 (_ BitVec 53))
(declare-const %181 (_ BitVec 64))
(declare-const %180 (_ BitVec 1))
(declare-const %183 (_ BitVec 64))
(declare-const %182 (_ BitVec 40))
(declare-const %185 (_ BitVec 64))
(declare-const %184 (_ BitVec 64))
(declare-const %187 (_ BitVec 64))
(declare-const %186 (_ BitVec 64))
(declare-const %189 (_ BitVec 64))
(declare-const %188 (_ BitVec 24))
(declare-const tmp_dword1!17 (_ BitVec 64))
(declare-const tmp_dword1!18 (_ BitVec 64))
(declare-const tmp_dword1!19 (_ BitVec 64))
(declare-const %190 (_ BitVec 64))
(declare-const tmp_dword1!13 (_ BitVec 64))
(declare-const %192 (_ BitVec 64))
(declare-const tmp_dword1!14 (_ BitVec 64))
(declare-const %191 (_ BitVec 64))
(declare-const %194 (_ BitVec 1))
(declare-const tmp_dword1!15 (_ BitVec 64))
(declare-const tmp_dword1!16 (_ BitVec 64))
(declare-const %193 (_ BitVec 3))
(declare-const %196 (_ BitVec 48))
(declare-const tmp_dword1!10 (_ BitVec 64))
(declare-const %195 (_ BitVec 64))
(declare-const tmp_dword1!11 (_ BitVec 64))
(declare-const %198 (_ BitVec 64))
(declare-const tmp_dword1!12 (_ BitVec 64))
(declare-const %197 (_ BitVec 64))
(declare-const %199 (_ BitVec 64))
(declare-const MEM!9 (Array (_ BitVec 53) (_ BitVec 64)))
(declare-const MEM!8 (Array (_ BitVec 53) (_ BitVec 64)))
(declare-const MEM!5 (Array (_ BitVec 53) (_ BitVec 64)))
(declare-const MEM!4 (Array (_ BitVec 53) (_ BitVec 64)))
(declare-const MEM!7 (Array (_ BitVec 53) (_ BitVec 64)))
(declare-const MEM!6 (Array (_ BitVec 53) (_ BitVec 64)))
(declare-const MEM!1 (Array (_ BitVec 53) (_ BitVec 64)))
(declare-const MEM!3 (Array (_ BitVec 53) (_ BitVec 64)))
(declare-const MEM!2 (Array (_ BitVec 53) (_ BitVec 64)))
(declare-const %10 (_ BitVec 3))
(declare-const %11 (_ BitVec 1))
(declare-const %12 (_ BitVec 53))
(declare-const %13 (_ BitVec 64))
(declare-const %14 (_ BitVec 64))
(declare-const %15 (_ BitVec 3))
(declare-const %16 (_ BitVec 1))
(declare-const %17 (_ BitVec 64))
(declare-const %18 (_ BitVec 8))
(declare-const %19 (_ BitVec 64))
(declare-const %20 (_ BitVec 64))
(declare-const %21 (_ BitVec 64))
(declare-const %22 (_ BitVec 64))
(declare-const %23 (_ BitVec 64))
(declare-const %24 (_ BitVec 56))
(declare-const %25 (_ BitVec 64))
(declare-const %26 (_ BitVec 64))
(declare-const %27 (_ BitVec 64))
(declare-const %28 (_ BitVec 64))
(declare-const %29 (_ BitVec 3))
(declare-const PC!3 (_ BitVec 64))
(declare-const PC!2 (_ BitVec 64))
(declare-const PC!5 (_ BitVec 64))
(declare-const %30 (_ BitVec 1))
(declare-const PC!4 (_ BitVec 64))
(declare-const %31 (_ BitVec 64))
(declare-const %32 (_ BitVec 16))
(declare-const %33 (_ BitVec 64))
(declare-const PC!1 (_ BitVec 64))
(declare-const %34 (_ BitVec 64))
(declare-const %35 (_ BitVec 64))
(declare-const %36 (_ BitVec 64))
(declare-const %37 (_ BitVec 64))
(declare-const %38 (_ BitVec 48))
(declare-const %39 (_ BitVec 64))
(declare-const PC!7 (_ BitVec 64))
(declare-const PC!6 (_ BitVec 64))
(declare-const PC!9 (_ BitVec 64))
(declare-const PC!8 (_ BitVec 64))
(declare-const %204 (_ BitVec 64))
(declare-const %40 (_ BitVec 64))
(declare-const %203 (_ BitVec 64))
(declare-const %41 (_ BitVec 64))
(declare-const %206 (_ BitVec 64))
(declare-const %42 (_ BitVec 64))
(declare-const %205 (_ BitVec 64))
(declare-const %43 (_ BitVec 3))
(declare-const %208 (_ BitVec 56))
(declare-const %44 (_ BitVec 1))
(declare-const %207 (_ BitVec 64))
(declare-const %45 (_ BitVec 64))
(declare-const %46 (_ BitVec 24))
(declare-const %209 (_ BitVec 64))
(declare-const %47 (_ BitVec 64))
(declare-const %48 (_ BitVec 64))
(declare-const %49 (_ BitVec 64))
(declare-const %200 (_ BitVec 64))
(declare-const %202 (_ BitVec 16))
(declare-const %201 (_ BitVec 64))
(declare-const %50 (_ BitVec 64))
(declare-const %215 (_ BitVec 64))
(declare-const %51 (_ BitVec 64))
(declare-const %214 (_ BitVec 8))
(declare-const %52 (_ BitVec 40))
(declare-const %217 (_ BitVec 64))
(declare-const %53 (_ BitVec 64))
(declare-const %216 (_ BitVec 64))
(declare-const %54 (_ BitVec 64))
(declare-const %219 (_ BitVec 53))
(declare-const %55 (_ BitVec 64))
(declare-const %218 (_ BitVec 64))
(declare-const %56 (_ BitVec 64))
(declare-const %57 (_ BitVec 3))
(declare-const %58 (_ BitVec 1))
(declare-const %59 (_ BitVec 64))
(declare-const rs2_var!3 (_ BitVec 64))
(declare-const rs2_var!2 (_ BitVec 64))
(declare-const %211 (_ BitVec 64))
(declare-const %210 (_ BitVec 64))
(declare-const %213 (_ BitVec 64))
(declare-const %60 (_ BitVec 32))
(declare-const %212 (_ BitVec 64))
(declare-const %61 (_ BitVec 64))
(declare-const %105 (_ BitVec 64))
(declare-const %226 (_ BitVec 64))
(declare-const %62 (_ BitVec 64))
(declare-const %225 (_ BitVec 1))
(declare-const %104 (_ BitVec 64))
(declare-const %107 (_ BitVec 64))
(declare-const %63 (_ BitVec 64))
(declare-const %228 (_ BitVec 64))
(declare-const %64 (_ BitVec 64))
(declare-const %227 (_ BitVec 64))
(declare-const %106 (_ BitVec 8))
(declare-const %65 (_ BitVec 64))
(declare-const %109 (_ BitVec 64))
(declare-const %66 (_ BitVec 32))
(declare-const %108 (_ BitVec 64))
(declare-const %67 (_ BitVec 64))
(declare-const %68 (_ BitVec 64))
(declare-const %69 (_ BitVec 64))
(declare-const PC!11 (_ BitVec 64))
(declare-const PC!12 (_ BitVec 64))
(declare-const PC!10 (_ BitVec 64))
(declare-const PC!19 (_ BitVec 64))
(declare-const PC!17 (_ BitVec 64))
(declare-const PC!18 (_ BitVec 64))
(declare-const PC!15 (_ BitVec 64))
(declare-const PC!16 (_ BitVec 64))
(declare-const PC!13 (_ BitVec 64))
(declare-const PC!14 (_ BitVec 64))
(declare-const %220 (_ BitVec 64))
(declare-const %101 (_ BitVec 64))
(declare-const %222 (_ BitVec 64))
(declare-const %221 (_ BitVec 64))
(declare-const %100 (_ BitVec 56))
(declare-const %70 (_ BitVec 64))
(declare-const %103 (_ BitVec 64))
(declare-const %224 (_ BitVec 64))
(declare-const %71 (_ BitVec 3))
(declare-const %102 (_ BitVec 64))
(declare-const %223 (_ BitVec 1))
(declare-const %116 (_ BitVec 64))
(declare-const %72 (_ BitVec 1))
(declare-const %115 (_ BitVec 64))
(declare-const %73 (_ BitVec 64))
(declare-const %118 (_ BitVec 3))
(declare-const %74 (_ BitVec 40))
(declare-const %117 (_ BitVec 53))
(declare-const %75 (_ BitVec 64))
(declare-const %76 (_ BitVec 64))
(declare-const %119 (_ BitVec 1))
(declare-const %77 (_ BitVec 64))
(declare-const %78 (_ BitVec 64))
(declare-const %79 (_ BitVec 64))
(declare-const %110 (_ BitVec 64))
(declare-const tmp_dword2!9 (_ BitVec 64))
(declare-const tmp_dword2!8 (_ BitVec 64))
(declare-const %112 (_ BitVec 64))
(declare-const %111 (_ BitVec 53))
(declare-const %80 (_ BitVec 24))
(declare-const tmp_dword2!7 (_ BitVec 64))
(declare-const %114 (_ BitVec 64))
(declare-const %81 (_ BitVec 64))
(declare-const tmp_dword2!6 (_ BitVec 64))
(declare-const %113 (_ BitVec 64))
(declare-const %82 (_ BitVec 64))
(declare-const tmp_dword2!5 (_ BitVec 64))
(declare-const tmp_dword2!4 (_ BitVec 64))
(declare-const %127 (_ BitVec 64))
(declare-const %83 (_ BitVec 64))
(declare-const tmp_dword2!3 (_ BitVec 64))
(declare-const %126 (_ BitVec 8))
(declare-const %84 (_ BitVec 64))
(declare-const tmp_dword2!2 (_ BitVec 64))
(declare-const %129 (_ BitVec 64))
(declare-const %85 (_ BitVec 3))
(declare-const tmp_dword2!1 (_ BitVec 64))
(declare-const %86 (_ BitVec 1))
(declare-const %128 (_ BitVec 64))
(declare-const %87 (_ BitVec 64))
(declare-const %88 (_ BitVec 48))
(declare-const %89 (_ BitVec 64))
(declare-const mem_index!2 (_ BitVec 53))
(declare-const mem_index!3 (_ BitVec 53))
(declare-const %121 (_ BitVec 64))
(declare-const %120 (_ BitVec 53))
(declare-const %123 (_ BitVec 3))
(declare-const %90 (_ BitVec 64))
(declare-const %122 (_ BitVec 64))
(declare-const %91 (_ BitVec 64))
(declare-const %125 (_ BitVec 64))
(declare-const %92 (_ BitVec 64))
(declare-const %124 (_ BitVec 1))
(declare-const %93 (_ BitVec 64))
(assert 
   (=
     XREG!2
     (store XREG!1 #b00000 #b0000000000000000000000000000000000000000000000000000000000000000)))
(assert 
   (= prev_pc!2 PC!1))
(assert 
   (=
     %3
     (select XREG!2 #b00010)))
(assert 
   (=
     %2
     (bvadd %3 #b1111111111111111111111111111111111111111111111111111111111110000)))
(assert 
   (=
     XREG!3
     (store XREG!2 #b00010 %2)))
(assert 
   (=
     %1
     (bvadd PC!1 #b0000000000000000000000000000000000000000000000000000000000000100)))
(assert 
   (= PC!2 %1))
(assert 
   (= PC!3 %1))
(assert 
   (= PC!4 PC!3))
(assert 
   (=
     XREG!4
     (store XREG!3 #b00000 #b0000000000000000000000000000000000000000000000000000000000000000)))
(assert 
   (= prev_pc!3 PC!3))
(assert 
   (=
     %6
     (select XREG!4 #b00010)))
(assert 
   (=
     %5
     (bvadd %6 #b0000000000000000000000000000000000000000000000000000000000000000)))
(assert 
   (= tmp_address!2 %5))
(assert 
   (=
     %7
     (select XREG!4 #b01000)))
(assert 
   (= rs2_var!2 %7))
(assert 
   (=
     %8
     (bvlshr %5 #b0000000000000000000000000000000000000000000000000000000000000011)))
(assert 
   (=
     %9
     ((_ extract 52 0) %8)))
(assert 
   (= mem_index!2 %9))
(assert 
   (=
     %10
     ((_ extract 2 0) %5)))
(assert 
   (=
     %11
     (ite
       (= %10 #b000)
       #b1
       #b0)))
(assert 
   (=
     MEM!4
     (store MEM!1 %9 %7)))
(assert 
   (=
     %12
     (bvadd %9 #b00000000000000000000000000000000000000000000000000001)))
(assert 
   (=
     %13
     (select MEM!1 %12)))
(assert 
   (= tmp_dword1!2 %13))
(assert 
   (=
     %14
     (select MEM!1 %9)))
(assert 
   (= tmp_dword2!2 %14))
(assert 
   (=
     %15
     ((_ extract 2 0) %5)))
(assert 
   (=
     %16
     (ite
       (= %15 #b001)
       #b1
       #b0)))
(assert 
   (=
     MEM!5
     (ite
       (= %11 #b1)
       MEM!4
       MEM!3)))
(assert 
   (=
     tmp_dword2!11
     (ite
       (= %11 #b1)
       tmp_dword2!1
       tmp_dword2!3)))
(assert 
   (=
     tmp_dword1!11
     (ite
       (= %11 #b1)
       tmp_dword1!1
       tmp_dword1!3)))
(assert 
   (=
     %4
     (bvadd PC!3 #b0000000000000000000000000000000000000000000000000000000000000100)))
(assert 
   (= PC!19 %4))
(assert 
   (= PC!5 %4))
(assert 
   (= PC!6 PC!5))
(assert 
   (=
     XREG!5
     (store XREG!4 #b00000 #b0000000000000000000000000000000000000000000000000000000000000000)))
(assert 
   (= prev_pc!4 PC!5))
(assert 
   (=
     %114
     (select XREG!5 #b00010)))
(assert 
   (=
     %113
     (bvadd %114 #b0000000000000000000000000000000000000000000000000000000000001000)))
(assert 
   (= tmp_address!3 %113))
(assert 
   (=
     %115
     (select XREG!5 #b00001)))
(assert 
   (= rs2_var!3 %115))
(assert 
   (=
     %116
     (bvlshr %113 #b0000000000000000000000000000000000000000000000000000000000000011)))
(assert 
   (=
     %117
     ((_ extract 52 0) %116)))
(assert 
   (= mem_index!3 %117))
(assert 
   (=
     %118
     ((_ extract 2 0) %113)))
(assert 
   (=
     %119
     (ite
       (= %118 #b000)
       #b1
       #b0)))
(assert 
   (=
     %17
     (bvlshr %7 #b0000000000000000000000000000000000000000000000000000000000111000)))
(assert 
   (=
     %18
     ((_ extract 7 0) %17)))
(assert 
   (=
     %20
     ((_ zero_extend 56) %18)))
(assert 
   (=
     %21
     (bvand %13 #b1111111111111111111111111111111111111111111111111111111100000000)))
(assert 
   (=
     %22
     (bvshl %20 #b0000000000000000000000000000000000000000000000000000000000000000)))
(assert 
   (=
     %19
     (bvor %21 %22)))
(assert 
   (= tmp_dword1!10 %19))
(assert 
   (=
     %23
     (bvlshr %7 #b0000000000000000000000000000000000000000000000000000000000000000)))
(assert 
   (=
     %24
     ((_ extract 55 0) %23)))
(assert 
   (=
     %26
     ((_ zero_extend 8) %24)))
(assert 
   (=
     %27
     (bvand %14 #b0000000000000000000000000000000000000000000000000000000011111111)))
(assert 
   (=
     %28
     (bvshl %26 #b0000000000000000000000000000000000000000000000000000000000001000)))
(assert 
   (=
     %25
     (bvor %27 %28)))
(assert 
   (= tmp_dword2!10 %25))
(assert 
   (=
     %29
     ((_ extract 2 0) %5)))
(assert 
   (=
     %30
     (ite
       (= %29 #b010)
       #b1
       #b0)))
(assert 
   (=
     tmp_dword2!3
     (ite
       (= %16 #b1)
       %25
       (ite
         (= %30 #b1)
         %39
         (ite
           (= %44 #b1)
           %53
           (ite
             (= %58 #b1)
             %67
             (ite
               (= %72 #b1)
               %81
               (ite
                 (= %86 #b1)
                 %95
                 %107))))))))
(assert 
   (=
     tmp_dword1!3
     (ite
       (= %16 #b1)
       %19
       (ite
         (= %30 #b1)
         %33
         (ite
           (= %44 #b1)
           %47
           (ite
             (= %58 #b1)
             %61
             (ite
               (= %72 #b1)
               %75
               (ite
                 (= %86 #b1)
                 %89
                 %101))))))))
(assert 
   (=
     %111
     (bvadd %9 #b00000000000000000000000000000000000000000000000000001)))
(assert 
   (=
     MEM!2
     (store MEM!1 %111 tmp_dword1!3)))
(assert 
   (=
     MEM!3
     (store MEM!2 %9 tmp_dword2!3)))
(assert 
   (=
     %31
     (bvlshr %7 #b0000000000000000000000000000000000000000000000000000000000110000)))
(assert 
   (=
     %32
     ((_ extract 15 0) %31)))
(assert 
   (=
     %34
     ((_ zero_extend 48) %32)))
(assert 
   (=
     %35
     (bvand %13 #b1111111111111111111111111111111111111111111111110000000000000000)))
(assert 
   (=
     %36
     (bvshl %34 #b0000000000000000000000000000000000000000000000000000000000000000)))
(assert 
   (=
     %33
     (bvor %35 %36)))
(assert 
   (= tmp_dword1!4 %33))
(assert 
   (=
     %37
     (bvlshr %7 #b0000000000000000000000000000000000000000000000000000000000000000)))
(assert 
   (=
     %38
     ((_ extract 47 0) %37)))
(assert 
   (=
     %40
     ((_ zero_extend 16) %38)))
(assert 
   (=
     %41
     (bvand %14 #b0000000000000000000000000000000000000000000000001111111111111111)))
(assert 
   (=
     %42
     (bvshl %40 #b0000000000000000000000000000000000000000000000000000000000010000)))
(assert 
   (=
     %39
     (bvor %41 %42)))
(assert 
   (= tmp_dword2!4 %39))
(assert 
   (=
     %43
     ((_ extract 2 0) %5)))
(assert 
   (=
     %44
     (ite
       (= %43 #b011)
       #b1
       #b0)))
(assert 
   (=
     %45
     (bvlshr %7 #b0000000000000000000000000000000000000000000000000000000000101000)))
(assert 
   (=
     %46
     ((_ extract 23 0) %45)))
(assert 
   (=
     %48
     ((_ zero_extend 40) %46)))
(assert 
   (=
     %49
     (bvand %13 #b1111111111111111111111111111111111111111000000000000000000000000)))
(assert 
   (=
     %50
     (bvshl %48 #b0000000000000000000000000000000000000000000000000000000000000000)))
(assert 
   (=
     %47
     (bvor %49 %50)))
(assert 
   (= tmp_dword1!9 %47))
(assert 
   (=
     %51
     (bvlshr %7 #b0000000000000000000000000000000000000000000000000000000000000000)))
(assert 
   (=
     %52
     ((_ extract 39 0) %51)))
(assert 
   (=
     %54
     ((_ zero_extend 24) %52)))
(assert 
   (=
     %55
     (bvand %14 #b0000000000000000000000000000000000000000111111111111111111111111)))
(assert 
   (=
     %56
     (bvshl %54 #b0000000000000000000000000000000000000000000000000000000000011000)))
(assert 
   (=
     %53
     (bvor %55 %56)))
(assert 
   (= tmp_dword2!9 %53))
(assert 
   (=
     %57
     ((_ extract 2 0) %5)))
(assert 
   (=
     %58
     (ite
       (= %57 #b100)
       #b1
       #b0)))
(assert 
   (=
     MEM!6
     (store MEM!5 %117 %115)))
(assert 
   (=
     %120
     (bvadd %117 #b00000000000000000000000000000000000000000000000000001)))
(assert 
   (=
     %121
     (select MEM!5 %120)))
(assert 
   (= tmp_dword1!13 %121))
(assert 
   (=
     %122
     (select MEM!5 %117)))
(assert 
   (= tmp_dword2!13 %122))
(assert 
   (=
     %123
     ((_ extract 2 0) %113)))
(assert 
   (=
     %124
     (ite
       (= %123 #b001)
       #b1
       #b0)))
(assert 
   (=
     %59
     (bvlshr %7 #b0000000000000000000000000000000000000000000000000000000000100000)))
(assert 
   (=
     %60
     ((_ extract 31 0) %59)))
(assert 
   (=
     %62
     ((_ zero_extend 32) %60)))
(assert 
   (=
     %63
     (bvand %13 #b1111111111111111111111111111111100000000000000000000000000000000)))
(assert 
   (=
     %64
     (bvshl %62 #b0000000000000000000000000000000000000000000000000000000000000000)))
(assert 
   (=
     %61
     (bvor %63 %64)))
(assert 
   (= tmp_dword1!8 %61))
(assert 
   (=
     %65
     (bvlshr %7 #b0000000000000000000000000000000000000000000000000000000000000000)))
(assert 
   (=
     %66
     ((_ extract 31 0) %65)))
(assert 
   (=
     %68
     ((_ zero_extend 32) %66)))
(assert 
   (=
     %69
     (bvand %14 #b0000000000000000000000000000000011111111111111111111111111111111)))
(assert 
   (=
     %70
     (bvshl %68 #b0000000000000000000000000000000000000000000000000000000000100000)))
(assert 
   (=
     %67
     (bvor %69 %70)))
(assert 
   (= tmp_dword2!8 %67))
(assert 
   (=
     %71
     ((_ extract 2 0) %5)))
(assert 
   (=
     %72
     (ite
       (= %71 #b101)
       #b1
       #b0)))
(assert 
   (=
     MEM!7
     (ite
       (= %119 #b1)
       MEM!6
       MEM!9)))
(assert 
   (=
     tmp_dword2!12
     (ite
       (= %119 #b1)
       tmp_dword2!11
       tmp_dword2!21)))
(assert 
   (=
     tmp_dword1!12
     (ite
       (= %119 #b1)
       tmp_dword1!11
       tmp_dword1!21)))
(assert 
   (=
     %112
     (bvadd PC!5 #b0000000000000000000000000000000000000000000000000000000000000100)))
(assert 
   (= PC!7 %112))
(assert 
   (= PC!8 %112))
(assert 
   (= PC!9 PC!8))
(assert 
   (=
     XREG!6
     (store XREG!5 #b00000 #b0000000000000000000000000000000000000000000000000000000000000000)))
(assert 
   (= prev_pc!5 PC!8))
(assert 
   (=
     %222
     (select XREG!6 #b01010)))
(assert 
   (=
     %221
     (bvadd %222 #b0000000000000000000000000000000000000000000000000000000000000000)))
(assert 
   (=
     XREG!7
     (store XREG!6 #b01000 %221)))
(assert 
   (=
     %220
     (bvadd PC!8 #b0000000000000000000000000000000000000000000000000000000000000100)))
(assert 
   (= PC!18 %220))
(assert 
   (= PC!10 %220))
(assert 
   (= PC!11 PC!10))
(assert 
   (=
     XREG!8
     (store XREG!7 #b00000 #b0000000000000000000000000000000000000000000000000000000000000000)))
(assert 
   (= prev_pc!6 PC!10))
(assert 
   (=
     %227
     (select XREG!8 #b01100)))
(assert 
   (=
     %228
     (select XREG!8 #b00000)))
(assert 
   (=
     %225
     (ite
       (= %227 %228)
       #b1
       #b0)))
(assert 
   (=
     %125
     (bvlshr %115 #b0000000000000000000000000000000000000000000000000000000000111000)))
(assert 
   (=
     %126
     ((_ extract 7 0) %125)))
(assert 
   (=
     %128
     ((_ zero_extend 56) %126)))
(assert 
   (=
     %129
     (bvand %121 #b1111111111111111111111111111111111111111111111111111111100000000)))
(assert 
   (=
     %130
     (bvshl %128 #b0000000000000000000000000000000000000000000000000000000000000000)))
(assert 
   (=
     %127
     (bvor %129 %130)))
(assert 
   (= tmp_dword1!14 %127))
(assert 
   (=
     %131
     (bvlshr %115 #b0000000000000000000000000000000000000000000000000000000000000000)))
(assert 
   (=
     %132
     ((_ extract 55 0) %131)))
(assert 
   (=
     %134
     ((_ zero_extend 8) %132)))
(assert 
   (=
     %135
     (bvand %122 #b0000000000000000000000000000000000000000000000000000000011111111)))
(assert 
   (=
     %136
     (bvshl %134 #b0000000000000000000000000000000000000000000000000000000000001000)))
(assert 
   (=
     %133
     (bvor %135 %136)))
(assert 
   (= tmp_dword2!14 %133))
(assert 
   (=
     %137
     ((_ extract 2 0) %113)))
(assert 
   (=
     %138
     (ite
       (= %137 #b010)
       #b1
       #b0)))
(assert 
   (=
     %73
     (bvlshr %7 #b0000000000000000000000000000000000000000000000000000000000011000)))
(assert 
   (=
     %74
     ((_ extract 39 0) %73)))
(assert 
   (=
     %76
     ((_ zero_extend 24) %74)))
(assert 
   (=
     %77
     (bvand %13 #b1111111111111111111111110000000000000000000000000000000000000000)))
(assert 
   (=
     %78
     (bvshl %76 #b0000000000000000000000000000000000000000000000000000000000000000)))
(assert 
   (=
     %75
     (bvor %77 %78)))
(assert 
   (= tmp_dword1!5 %75))
(assert 
   (=
     %79
     (bvlshr %7 #b0000000000000000000000000000000000000000000000000000000000000000)))
(assert 
   (=
     %80
     ((_ extract 23 0) %79)))
(assert 
   (=
     %82
     ((_ zero_extend 40) %80)))
(assert 
   (=
     %83
     (bvand %14 #b0000000000000000000000001111111111111111111111111111111111111111)))
(assert 
   (=
     %84
     (bvshl %82 #b0000000000000000000000000000000000000000000000000000000000101000)))
(assert 
   (=
     %81
     (bvor %83 %84)))
(assert 
   (= tmp_dword2!5 %81))
(assert 
   (=
     %85
     ((_ extract 2 0) %5)))
(assert 
   (=
     %86
     (ite
       (= %85 #b110)
       #b1
       #b0)))
(assert 
   (=
     tmp_dword2!21
     (ite
       (= %124 #b1)
       %133
       (ite
         (= %138 #b1)
         %147
         (ite
           (= %152 #b1)
           %161
           (ite
             (= %166 #b1)
             %175
             (ite
               (= %180 #b1)
               %189
               (ite
                 (= %194 #b1)
                 %203
                 %215))))))))
(assert 
   (=
     tmp_dword1!21
     (ite
       (= %124 #b1)
       %127
       (ite
         (= %138 #b1)
         %141
         (ite
           (= %152 #b1)
           %155
           (ite
             (= %166 #b1)
             %169
             (ite
               (= %180 #b1)
               %183
               (ite
                 (= %194 #b1)
                 %197
                 %209))))))))
(assert 
   (=
     %219
     (bvadd %117 #b00000000000000000000000000000000000000000000000000001)))
(assert 
   (=
     MEM!8
     (store MEM!5 %219 tmp_dword1!21)))
(assert 
   (=
     MEM!9
     (store MEM!8 %117 tmp_dword2!21)))
(assert 
   (=
     %139
     (bvlshr %115 #b0000000000000000000000000000000000000000000000000000000000110000)))
(assert 
   (=
     %140
     ((_ extract 15 0) %139)))
(assert 
   (=
     %142
     ((_ zero_extend 48) %140)))
(assert 
   (=
     %143
     (bvand %121 #b1111111111111111111111111111111111111111111111110000000000000000)))
(assert 
   (=
     %144
     (bvshl %142 #b0000000000000000000000000000000000000000000000000000000000000000)))
(assert 
   (=
     %141
     (bvor %143 %144)))
(assert 
   (= tmp_dword1!20 %141))
(assert 
   (=
     %145
     (bvlshr %115 #b0000000000000000000000000000000000000000000000000000000000000000)))
(assert 
   (=
     %146
     ((_ extract 47 0) %145)))
(assert 
   (=
     %148
     ((_ zero_extend 16) %146)))
(assert 
   (=
     %149
     (bvand %122 #b0000000000000000000000000000000000000000000000001111111111111111)))
(assert 
   (=
     %150
     (bvshl %148 #b0000000000000000000000000000000000000000000000000000000000010000)))
(assert 
   (=
     %147
     (bvor %149 %150)))
(assert 
   (= tmp_dword2!20 %147))
(assert 
   (=
     %151
     ((_ extract 2 0) %113)))
(assert 
   (=
     %152
     (ite
       (= %151 #b011)
       #b1
       #b0)))
(assert 
   (=
     %87
     (bvlshr %7 #b0000000000000000000000000000000000000000000000000000000000010000)))
(assert 
   (=
     %88
     ((_ extract 47 0) %87)))
(assert 
   (=
     %90
     ((_ zero_extend 16) %88)))
(assert 
   (=
     %91
     (bvand %13 #b1111111111111111000000000000000000000000000000000000000000000000)))
(assert 
   (=
     %92
     (bvshl %90 #b0000000000000000000000000000000000000000000000000000000000000000)))
(assert 
   (=
     %89
     (bvor %91 %92)))
(assert 
   (= tmp_dword1!6 %89))
(assert 
   (=
     %93
     (bvlshr %7 #b0000000000000000000000000000000000000000000000000000000000000000)))
(assert 
   (=
     %94
     ((_ extract 15 0) %93)))
(assert 
   (=
     %96
     ((_ zero_extend 48) %94)))
(assert 
   (=
     %97
     (bvand %14 #b0000000000000000111111111111111111111111111111111111111111111111)))
(assert 
   (=
     %98
     (bvshl %96 #b0000000000000000000000000000000000000000000000000000000000110000)))
(assert 
   (=
     %95
     (bvor %97 %98)))
(assert 
   (= tmp_dword2!6 %95))
(assert 
   (=
     %99
     (bvlshr %7 #b0000000000000000000000000000000000000000000000000000000000001000)))
(assert 
   (=
     %100
     ((_ extract 55 0) %99)))
(assert 
   (=
     %102
     ((_ zero_extend 8) %100)))
(assert 
   (=
     %103
     (bvand %13 #b1111111100000000000000000000000000000000000000000000000000000000)))
(assert 
   (=
     %104
     (bvshl %102 #b0000000000000000000000000000000000000000000000000000000000000000)))
(assert 
   (=
     %101
     (bvor %103 %104)))
(assert 
   (= tmp_dword1!7 %101))
(assert 
   (=
     %105
     (bvlshr %7 #b0000000000000000000000000000000000000000000000000000000000000000)))
(assert 
   (=
     %106
     ((_ extract 7 0) %105)))
(assert 
   (=
     %108
     ((_ zero_extend 56) %106)))
(assert 
   (=
     %109
     (bvand %14 #b0000000011111111111111111111111111111111111111111111111111111111)))
(assert 
   (=
     %110
     (bvshl %108 #b0000000000000000000000000000000000000000000000000000000000111000)))
(assert 
   (=
     %107
     (bvor %109 %110)))
(assert 
   (= tmp_dword2!7 %107))
(assert 
   (=
     %153
     (bvlshr %115 #b0000000000000000000000000000000000000000000000000000000000101000)))
(assert 
   (=
     %154
     ((_ extract 23 0) %153)))
(assert 
   (=
     %156
     ((_ zero_extend 40) %154)))
(assert 
   (=
     %157
     (bvand %121 #b1111111111111111111111111111111111111111000000000000000000000000)))
(assert 
   (=
     %158
     (bvshl %156 #b0000000000000000000000000000000000000000000000000000000000000000)))
(assert 
   (=
     %155
     (bvor %157 %158)))
(assert 
   (= tmp_dword1!19 %155))
(assert 
   (=
     %159
     (bvlshr %115 #b0000000000000000000000000000000000000000000000000000000000000000)))
(assert 
   (=
     %160
     ((_ extract 39 0) %159)))
(assert 
   (=
     %162
     ((_ zero_extend 24) %160)))
(assert 
   (=
     %163
     (bvand %122 #b0000000000000000000000000000000000000000111111111111111111111111)))
(assert 
   (=
     %164
     (bvshl %162 #b0000000000000000000000000000000000000000000000000000000000011000)))
(assert 
   (=
     %161
     (bvor %163 %164)))
(assert 
   (= tmp_dword2!19 %161))
(assert 
   (=
     %165
     ((_ extract 2 0) %113)))
(assert 
   (=
     %166
     (ite
       (= %165 #b100)
       #b1
       #b0)))
(assert 
   (=
     %167
     (bvlshr %115 #b0000000000000000000000000000000000000000000000000000000000100000)))
(assert 
   (=
     %168
     ((_ extract 31 0) %167)))
(assert 
   (=
     %170
     ((_ zero_extend 32) %168)))
(assert 
   (=
     %171
     (bvand %121 #b1111111111111111111111111111111100000000000000000000000000000000)))
(assert 
   (=
     %172
     (bvshl %170 #b0000000000000000000000000000000000000000000000000000000000000000)))
(assert 
   (=
     %169
     (bvor %171 %172)))
(assert 
   (= tmp_dword1!15 %169))
(assert 
   (=
     %173
     (bvlshr %115 #b0000000000000000000000000000000000000000000000000000000000000000)))
(assert 
   (=
     %174
     ((_ extract 31 0) %173)))
(assert 
   (=
     %176
     ((_ zero_extend 32) %174)))
(assert 
   (=
     %177
     (bvand %122 #b0000000000000000000000000000000011111111111111111111111111111111)))
(assert 
   (=
     %178
     (bvshl %176 #b0000000000000000000000000000000000000000000000000000000000100000)))
(assert 
   (=
     %175
     (bvor %177 %178)))
(assert 
   (= tmp_dword2!15 %175))
(assert 
   (=
     %179
     ((_ extract 2 0) %113)))
(assert 
   (=
     %180
     (ite
       (= %179 #b101)
       #b1
       #b0)))
(assert 
   (=
     %181
     (bvlshr %115 #b0000000000000000000000000000000000000000000000000000000000011000)))
(assert 
   (=
     %182
     ((_ extract 39 0) %181)))
(assert 
   (=
     %184
     ((_ zero_extend 24) %182)))
(assert 
   (=
     %185
     (bvand %121 #b1111111111111111111111110000000000000000000000000000000000000000)))
(assert 
   (=
     %186
     (bvshl %184 #b0000000000000000000000000000000000000000000000000000000000000000)))
(assert 
   (=
     %183
     (bvor %185 %186)))
(assert 
   (= tmp_dword1!16 %183))
(assert 
   (=
     %187
     (bvlshr %115 #b0000000000000000000000000000000000000000000000000000000000000000)))
(assert 
   (=
     %188
     ((_ extract 23 0) %187)))
(assert 
   (=
     %190
     ((_ zero_extend 40) %188)))
(assert 
   (=
     %191
     (bvand %122 #b0000000000000000000000001111111111111111111111111111111111111111)))
(assert 
   (=
     %192
     (bvshl %190 #b0000000000000000000000000000000000000000000000000000000000101000)))
(assert 
   (=
     %189
     (bvor %191 %192)))
(assert 
   (= tmp_dword2!16 %189))
(assert 
   (=
     %193
     ((_ extract 2 0) %113)))
(assert 
   (=
     %194
     (ite
       (= %193 #b110)
       #b1
       #b0)))
(assert 
   (=
     %226
     (bvadd PC!10 #b0000000000000000000000000000000000000000000000000000000000001100)))
(assert 
   (= PC!17 %226))
(assert 
   (=
     %195
     (bvlshr %115 #b0000000000000000000000000000000000000000000000000000000000010000)))
(assert 
   (=
     %196
     ((_ extract 47 0) %195)))
(assert 
   (=
     %198
     ((_ zero_extend 16) %196)))
(assert 
   (=
     %199
     (bvand %121 #b1111111111111111000000000000000000000000000000000000000000000000)))
(assert 
   (=
     %200
     (bvshl %198 #b0000000000000000000000000000000000000000000000000000000000000000)))
(assert 
   (=
     %197
     (bvor %199 %200)))
(assert 
   (= tmp_dword1!18 %197))
(assert 
   (=
     %201
     (bvlshr %115 #b0000000000000000000000000000000000000000000000000000000000000000)))
(assert 
   (=
     %202
     ((_ extract 15 0) %201)))
(assert 
   (=
     %204
     ((_ zero_extend 48) %202)))
(assert 
   (=
     %205
     (bvand %122 #b0000000000000000111111111111111111111111111111111111111111111111)))
(assert 
   (=
     %206
     (bvshl %204 #b0000000000000000000000000000000000000000000000000000000000110000)))
(assert 
   (=
     %203
     (bvor %205 %206)))
(assert 
   (= tmp_dword2!18 %203))
(assert 
   (=
     %207
     (bvlshr %115 #b0000000000000000000000000000000000000000000000000000000000001000)))
(assert 
   (=
     %208
     ((_ extract 55 0) %207)))
(assert 
   (=
     %210
     ((_ zero_extend 8) %208)))
(assert 
   (=
     %211
     (bvand %121 #b1111111100000000000000000000000000000000000000000000000000000000)))
(assert 
   (=
     %212
     (bvshl %210 #b0000000000000000000000000000000000000000000000000000000000000000)))
(assert 
   (=
     %209
     (bvor %211 %212)))
(assert 
   (= tmp_dword1!17 %209))
(assert 
   (=
     %213
     (bvlshr %115 #b0000000000000000000000000000000000000000000000000000000000000000)))
(assert 
   (=
     %214
     ((_ extract 7 0) %213)))
(assert 
   (=
     %216
     ((_ zero_extend 56) %214)))
(assert 
   (=
     %217
     (bvand %122 #b0000000011111111111111111111111111111111111111111111111111111111)))
(assert 
   (=
     %218
     (bvshl %216 #b0000000000000000000000000000000000000000000000000000000000111000)))
(assert 
   (=
     %215
     (bvor %217 %218)))
(assert 
   (= tmp_dword2!17 %215))
(assert 
   (=
     PC!12
     (ite
       (= %225 #b1)
       %226
       PC!10)))
(assert 
   (=
     %223
     (ite
       (= PC!12 PC!10)
       #b1
       #b0)))
(assert 
   (=
     %224
     (bvadd PC!12 #b0000000000000000000000000000000000000000000000000000000000000100)))
(assert 
   (= PC!16 %224))
(assert 
   (=
     PC!13
     (ite
       (= %225 #b1)
       %226
       %224)))
(assert 
   (= PC!14 PC!13))
(assert 
   (= PC!15 PC!13))
(check-sat)
(get-value (
  %138
  %94
  %95
  %137
  %96
  %139
  %97
  %98
  %99
  %130
  %132
  %131
  tmp_dword1!9
  %134
  tmp_dword1!8
  %133
  %136
  tmp_dword1!7
  %135
  tmp_dword1!6
  tmp_dword1!5
  %149
  tmp_dword1!4
  %148
  tmp_dword1!3
  prev_pc!6
  tmp_dword1!2
  tmp_dword1!1
  prev_pc!4
  prev_pc!5
  prev_pc!2
  prev_pc!3
  %141
  tmp_dword1!20
  tmp_dword1!21
  %140
  %143
  %142
  %145
  %144
  %147
  %146
  %159
  %150
  %152
  tmp_dword2!21
  %151
  %154
  %153
  %156
  %155
  tmp_dword2!20
  %158
  %157
  tmp_dword2!19
  tmp_dword2!18
  tmp_dword2!15
  tmp_dword2!14
  %161
  tmp_dword2!17
  %160
  tmp_dword2!16
  tmp_dword2!11
  %163
  tmp_dword2!10
  %162
  tmp_dword2!13
  %165
  tmp_dword2!12
  %164
  %167
  %166
  %169
  %168
  XREG!3
  XREG!4
  XREG!1
  XREG!2
  tmp_address!2
  tmp_address!3
  %170
  %172
  %171
  %174
  %173
  %176
  %175
  XREG!7
  %178
  XREG!8
  %177
  XREG!5
  XREG!6
  %179
  %1
  %2
  %3
  %4
  %5
  %6
  %7
  %8
  %9
  %181
  %180
  %183
  %182
  %185
  %184
  %187
  %186
  %189
  %188
  tmp_dword1!17
  tmp_dword1!18
  tmp_dword1!19
  %190
  tmp_dword1!13
  %192
  tmp_dword1!14
  %191
  %194
  tmp_dword1!15
  tmp_dword1!16
  %193
  %196
  tmp_dword1!10
  %195
  tmp_dword1!11
  %198
  tmp_dword1!12
  %197
  %199
  MEM!9
  MEM!8
  MEM!5
  MEM!4
  MEM!7
  MEM!6
  MEM!1
  MEM!3
  MEM!2
  %10
  %11
  %12
  %13
  %14
  %15
  %16
  %17
  %18
  %19
  %20
  %21
  %22
  %23
  %24
  %25
  %26
  %27
  %28
  %29
  PC!3
  PC!2
  PC!5
  %30
  PC!4
  %31
  %32
  %33
  PC!1
  %34
  %35
  %36
  %37
  %38
  %39
  PC!7
  PC!6
  PC!9
  PC!8
  %204
  %40
  %203
  %41
  %206
  %42
  %205
  %43
  %208
  %44
  %207
  %45
  %46
  %209
  %47
  %48
  %49
  %200
  %202
  %201
  %50
  %215
  %51
  %214
  %52
  %217
  %53
  %216
  %54
  %219
  %55
  %218
  %56
  %57
  %58
  %59
  rs2_var!3
  rs2_var!2
  %211
  %210
  %213
  %60
  %212
  %61
  %105
  %226
  %62
  %225
  %104
  %107
  %63
  %228
  %64
  %227
  %106
  %65
  %109
  %66
  %108
  %67
  %68
  %69
  PC!11
  PC!12
  PC!10
  PC!19
  PC!17
  PC!18
  PC!15
  PC!16
  PC!13
  PC!14
  %220
  %101
  %222
  %221
  %100
  %70
  %103
  %224
  %71
  %102
  %223
  %116
  %72
  %115
  %73
  %118
  %74
  %117
  %75
  %76
  %119
  %77
  %78
  %79
  %110
  tmp_dword2!9
  tmp_dword2!8
  %112
  %111
  %80
  tmp_dword2!7
  %114
  %81
  tmp_dword2!6
  %113
  %82
  tmp_dword2!5
  tmp_dword2!4
  %127
  %83
  tmp_dword2!3
  %126
  %84
  tmp_dword2!2
  %129
  %85
  tmp_dword2!1
  %86
  %128
  %87
  %88
  %89
  mem_index!2
  mem_index!3
  %121
  %120
  %123
  %90
  %122
  %91
  %125
  %92
  %124
  %93
  ))
(get-model)
(exit)
